/* Objective function */
min: +C1 +C2 +C3 +C4 +C5 +C6 +C7 +C8 +C9 +C10 +C11 +C12 +C13 +C14 +C15 +C16 +C17 +C18 +C19 +C20 +C21 +C22
 +C23 +C24 +C25 +C26 +C27 +C28 +C29 +C30 +C31 +C32 +C33 +C34 +C35 +C36 +C37 +C38 +C39 +C40 +C41 +C42
 +C43 +C44 +C45 +C46 +C47 +C48 +C49 +C50 +C51 +C52 +C53 +C54 +C55 +C56 +C57 +C58 +C59 +C60 +C61 +C62
 +C63 +C64 +C65 +C66 +C67 +C68 +C69 +C70 +C71 +C72 +C73 +C74 +C75 +C76 +C77 +C78 +C79 +C80 +C81 +C82
 +C83 +C84 +C85 +C86 +C87 +C88 +C89 +C90 +C91 +C92 +C93 +C94 +C95 +C96 +C97 +C98 +C99 +C100 +C101 +C102
 +C103 +C104 +C105 +C106 +C107 +C108 +C109 +C110 +C111 +C112 +C113 +C114 +C115 +C116 +C117 +C118 +C119
 +C120 +C121 +C122 +C123 +C124 +C125 +C126 +C127 +C128 +C129 +C130 +C131 +C132 +C133 +C134 +C135 +C136
 +C137 +C138 +C139 +C140 +C141 +C142 +C143 +C144 +C145 +C146 +C147 +C148 +C149 +C150 +C151 +C152 +C153
 +C154 +C155 +C156 +C157 +C158 +C159 +C160 +C161 +C162 +C163 +C164 +C165 +C166 +C167 +C168 +C169 +C170
 +C171 +C172 +C173 +C174 +C175 +C176 +C177 +C178 +C179 +C180 +C181 +C182 +C183 +C184 +C185 +C186 +C187
 +C188 +C189 +C190 +C191 +C192 +C193 +C194 +C195 +C196 +C197 +C198 +C199 +C200 +C201 +C202 +C203 +C204
 +C205 +C206 +C207 +C208 +C209 +C210 +C211 +C212 +C213 +C214 +C215 +C216 +C217 +C218 +C219 +C220 +C221
 +C222 +C223 +C224 +C225 +C226 +C227 +C228 +C229 +C230 +C231 +C232 +C233 +C234 +C235 +C236 +C237 +C238
 +C239 +C240 +C241 +C242 +C243 +C244 +C245 +C246 +C247 +C248 +C249 +C250 +C251 +C252 +C253 +C254 +C255
 +C256 +C257 +C258 +C259 +C260 +C261 +C262 +C263 +C264 +C265 +C266 +C267 +C268 +C269 +C270 +C271 +C272
 +C273 +C274 +C275 +C276 +C277 +C278 +C279 +C280 +C281 +C282 +C283 +C284 +C285 +C286 +C287 +C288 +C289
 +C290 +C291 +C292 +C293 +C294 +C295 +C296 +C297 +C298 +C299 +C300 +C301 +C302 +C303 +C304 +C305 +C306
 +C307 +C308 +C309 +C310 +C311 +C312 +C313 +C314 +C315 +C316 +C317 +C318 +C319 +C320 +C321 +C322 +C323
 +C324 +C325 +C326 +C327 +C328 +C329 +C330 +C331 +C332 +C333 +C334 +C335 +C336 +C337 +C338 +C339 +C340
 +C341 +C342 +C343 +C344 +C345 +C346 +C347 +C348 +C349 +C350 +C351 +C352 +C353 +C354 +C355 +C356 +C357
 +C358 +C359 +C360 +C361 +C362 +C363 +C364 +C365 +C366 +C367 +C368 +C369 +C370 +C371 +C372 +C373 +C374
 +C375 +C376 +C377 +C378 +C379 +C380 +C381 +C382 +C383 +C384 +C385 +C386 +C387 +C388 +C389 +C390 +C391
 +C392 +C393 +C394 +C395 +C396 +C397 +C398 +C399 +C400 +C401 +C402 +C403 +C404 +C405 +C406 +C407 +C408
 +C409 +C410 +C411 +C412 +C413 +C414 +C415 +C416 +C417 +C418 +C419 +C420 +C421 +C422 +C423 +C424 +C425
 +C426 +C427 +C428 +C429 +C430 +C431 +C432 +C433 +C434 +C435 +C436 +C437 +C438 +C439 +C440 +C441 +C442
 +C443 +C444 +C445 +C446 +C447 +C448 +C449 +C450 +C451 +C452 +C453 +C454 +C455 +C456 +C457 +C458 +C459
 +C460 +C461 +C462 +C463 +C464 +C465 +C466 +C467 +C468 +C469 +C470 +C471 +C472 +C473 +C474 +C475 +C476
 +C477 +C478 +C479 +C480;

/* Constraints */
+C1 +C2 = 2;
+C1 +C12 +C17 = 2;
-C2 +C12 +C14 -C23 = 0;
+C17 +C19 +C20 -C24 -C29 = 0;
-C14 -C19 +C23 +C24 +C25 -C30 = 0;
-C20 -C25 +C29 +C30 = 0;
+C31 +C32 = 2;
-C31 +C37 +C38 -C47 = 0;
+C32 +C37 +C53 = 2;
-C38 +C47 +C49 +C50 -C54 -C59 = 0;
-C49 +C53 +C54 +C55 -C60 = 0;
-C50 -C55 +C59 +C60 = 0;
+C61 +C62 = 2;
-C61 +C67 +C68 -C72 = 0;
-C62 -C67 +C72 +C74 -C83 = 0;
+C68 +C84 +C89 = 2;
-C74 +C83 +C84 +C85 -C90 = 0;
-C85 +C89 +C90 = 0;
+C91 +C92 = 2;
-C91 +C97 +C98 -C102 -C107 = 0;
-C92 -C97 +C102 +C104 = 0;
-C98 +C107 +C109 +C110 -C119 = 0;
+C104 +C109 +C120 = 2;
-C110 +C119 +C120 = 0;
+C121 +C122 = 2;
-C121 +C127 +C128 -C132 -C137 = 0;
-C122 -C127 +C132 +C134 -C143 = 0;
-C128 +C137 +C139 +C140 -C144 = 0;
-C134 -C139 +C143 +C144 +C145 = 0;
+C140 +C145 = 2;
+C152 -C156 = 0;
+C156 +C157 +C158 = 2;
+C152 +C157 +C173 = 2;
-C158 +C169 +C170 -C174 -C179 = 0;
-C169 +C173 +C174 +C175 -C180 = 0;
-C170 -C175 +C179 +C180 = 0;
+C182 -C186 -C191 = 0;
+C186 +C187 +C188 = 2;
-C182 -C187 +C191 +C194 -C203 = 0;
+C188 +C204 +C209 = 2;
-C194 +C203 +C204 +C205 -C210 = 0;
-C205 +C209 +C210 = 0;
+C212 -C216 -C221 = 0;
+C216 +C217 +C218 = 2;
-C212 -C217 +C221 +C224 = 0;
-C218 +C229 +C230 -C239 = 0;
+C224 +C229 +C240 = 2;
-C230 +C239 +C240 = 0;
+C242 -C246 -C251 = 0;
+C246 +C247 +C248 = 2;
-C242 -C247 +C251 +C254 -C263 = 0;
-C248 +C259 +C260 -C264 = 0;
-C254 -C259 +C263 +C264 +C265 = 0;
+C260 +C265 = 2;
+C271 -C276 -C281 = 0;
-C271 +C276 +C278 -C282 = 0;
+C281 +C282 +C284 = 2;
+C278 +C294 +C299 = 2;
-C284 +C294 +C295 -C300 = 0;
-C295 +C299 +C300 = 0;
+C301 -C306 -C311 = 0;
-C301 +C306 +C308 -C312 -C317 = 0;
+C311 +C312 +C314 = 2;
-C308 +C317 +C319 +C320 -C329 = 0;
+C314 +C319 +C330 = 2;
-C320 +C329 +C330 = 0;
+C331 -C336 -C341 = 0;
-C331 +C336 +C338 -C342 -C347 = 0;
+C341 +C342 +C344 = 2;
-C338 +C347 +C349 +C350 -C354 = 0;
-C344 -C349 +C354 +C355 = 0;
+C350 +C355 = 2;
+C361 +C362 -C366 -C371 = 0;
-C361 +C366 +C367 -C372 -C377 = 0;
-C362 -C367 +C371 +C372 +C374 = 0;
+C377 +C379 +C380 = 2;
+C374 +C379 +C390 = 2;
-C380 +C390 = 0;
+C391 +C392 -C396 -C401 = 0;
-C391 +C396 +C397 -C402 -C407 = 0;
-C392 -C397 +C401 +C402 +C404 -C413 = 0;
+C407 +C409 +C410 = 2;
-C404 -C409 +C413 +C415 = 0;
+C410 +C415 = 2;
+C421 +C422 -C426 -C431 = 0;
-C421 +C426 +C427 +C428 -C432 -C437 = 0;
-C422 -C427 +C431 +C432 -C443 = 0;
-C428 +C437 +C440 -C444 = 0;
+C443 +C444 +C445 = 2;
+C440 +C445 = 2;
+212.5 C1 +212.5 C6 +212.5 C31 +212.5 C36 +187.5 C61 +187.5 C66 +12.5 C91 +12.5 C96 +162.5 C121 +162.5 C126
 +400 C151 +400 C156 +87.5 C181 +87.5 C186 +187.5 C211 +187.5 C216 +1425 C241 +1425 C246 +137.5 C271
 +137.5 C276 +575 C301 +575 C306 +12.5 C331 +12.5 C336 +137.5 C361 +137.5 C366 +87.5 C391 +87.5 C396
 +1162.5 C421 +1162.5 C426 -100 C451 <= 0;
+212.5 C2 +212.5 C11 +212.5 C32 +212.5 C41 +187.5 C62 +187.5 C71 +12.5 C92 +12.5 C101 +162.5 C122 +162.5 C131
 +400 C152 +400 C161 +87.5 C182 +87.5 C191 +187.5 C212 +187.5 C221 +1425 C242 +1425 C251 +137.5 C272
 +137.5 C281 +575 C302 +575 C311 +12.5 C332 +12.5 C341 +137.5 C362 +137.5 C371 +87.5 C392 +87.5 C401
 +1162.5 C422 +1162.5 C431 -100 C452 <= 0;
+212.5 C3 +212.5 C16 +212.5 C33 +212.5 C46 +187.5 C63 +187.5 C76 +12.5 C93 +12.5 C106 +162.5 C123 +162.5 C136
 +400 C153 +400 C166 +87.5 C183 +87.5 C196 +187.5 C213 +187.5 C226 +1425 C243 +1425 C256 +137.5 C273
 +137.5 C286 +575 C303 +575 C316 +12.5 C333 +12.5 C346 +137.5 C363 +137.5 C376 +87.5 C393 +87.5 C406
 +1162.5 C423 +1162.5 C436 <= 0;
+212.5 C4 +212.5 C21 +212.5 C34 +212.5 C51 +187.5 C64 +187.5 C81 +12.5 C94 +12.5 C111 +162.5 C124 +162.5 C141
 +400 C154 +400 C171 +87.5 C184 +87.5 C201 +187.5 C214 +187.5 C231 +1425 C244 +1425 C261 +137.5 C274
 +137.5 C291 +575 C304 +575 C321 +12.5 C334 +12.5 C351 +137.5 C364 +137.5 C381 +87.5 C394 +87.5 C411
 +1162.5 C424 +1162.5 C441 <= 0;
+212.5 C5 +212.5 C26 +212.5 C35 +212.5 C56 +187.5 C65 +187.5 C86 +12.5 C95 +12.5 C116 +162.5 C125 +162.5 C146
 +400 C155 +400 C176 +87.5 C185 +87.5 C206 +187.5 C215 +187.5 C236 +1425 C245 +1425 C266 +137.5 C275
 +137.5 C296 +575 C305 +575 C326 +12.5 C335 +12.5 C356 +137.5 C365 +137.5 C386 +87.5 C395 +87.5 C416
 +1162.5 C425 +1162.5 C446 <= 0;
+212.5 C7 +212.5 C12 +212.5 C37 +212.5 C42 +187.5 C67 +187.5 C72 +12.5 C97 +12.5 C102 +162.5 C127 +162.5 C132
 +400 C157 +400 C162 +87.5 C187 +87.5 C192 +187.5 C217 +187.5 C222 +1425 C247 +1425 C252 +137.5 C277
 +137.5 C282 +575 C307 +575 C312 +12.5 C337 +12.5 C342 +137.5 C367 +137.5 C372 +87.5 C397 +87.5 C402
 +1162.5 C427 +1162.5 C432 -100 C456 <= 0;
+212.5 C8 +212.5 C17 +212.5 C38 +212.5 C47 +187.5 C68 +187.5 C77 +12.5 C98 +12.5 C107 +162.5 C128 +162.5 C137
 +400 C158 +400 C167 +87.5 C188 +87.5 C197 +187.5 C218 +187.5 C227 +1425 C248 +1425 C257 +137.5 C278
 +137.5 C287 +575 C308 +575 C317 +12.5 C338 +12.5 C347 +137.5 C368 +137.5 C377 +87.5 C398 +87.5 C407
 +1162.5 C428 +1162.5 C437 -100 C457 <= 0;
+212.5 C9 +212.5 C22 +212.5 C39 +212.5 C52 +187.5 C69 +187.5 C82 +12.5 C99 +12.5 C112 +162.5 C129 +162.5 C142
 +400 C159 +400 C172 +87.5 C189 +87.5 C202 +187.5 C219 +187.5 C232 +1425 C249 +1425 C262 +137.5 C279
 +137.5 C292 +575 C309 +575 C322 +12.5 C339 +12.5 C352 +137.5 C369 +137.5 C382 +87.5 C399 +87.5 C412
 +1162.5 C429 +1162.5 C442 <= 0;
+212.5 C10 +212.5 C27 +212.5 C40 +212.5 C57 +187.5 C70 +187.5 C87 +12.5 C100 +12.5 C117 +162.5 C130 +162.5 C147
 +400 C160 +400 C177 +87.5 C190 +87.5 C207 +187.5 C220 +187.5 C237 +1425 C250 +1425 C267 +137.5 C280
 +137.5 C297 +575 C310 +575 C327 +12.5 C340 +12.5 C357 +137.5 C370 +137.5 C387 +87.5 C400 +87.5 C417
 +1162.5 C430 +1162.5 C447 <= 0;
+212.5 C13 +212.5 C18 +212.5 C43 +212.5 C48 +187.5 C73 +187.5 C78 +12.5 C103 +12.5 C108 +162.5 C133 +162.5 C138
 +400 C163 +400 C168 +87.5 C193 +87.5 C198 +187.5 C223 +187.5 C228 +1425 C253 +1425 C258 +137.5 C283
 +137.5 C288 +575 C313 +575 C318 +12.5 C343 +12.5 C348 +137.5 C373 +137.5 C378 +87.5 C403 +87.5 C408
 +1162.5 C433 +1162.5 C438 <= 0;
+212.5 C14 +212.5 C23 +212.5 C44 +212.5 C53 +187.5 C74 +187.5 C83 +12.5 C104 +12.5 C113 +162.5 C134 +162.5 C143
 +400 C164 +400 C173 +87.5 C194 +87.5 C203 +187.5 C224 +187.5 C233 +1425 C254 +1425 C263 +137.5 C284
 +137.5 C293 +575 C314 +575 C323 +12.5 C344 +12.5 C353 +137.5 C374 +137.5 C383 +87.5 C404 +87.5 C413
 +1162.5 C434 +1162.5 C443 -100 C461 <= 0;
+212.5 C15 +212.5 C28 +212.5 C45 +212.5 C58 +187.5 C75 +187.5 C88 +12.5 C105 +12.5 C118 +162.5 C135 +162.5 C148
 +400 C165 +400 C178 +87.5 C195 +87.5 C208 +187.5 C225 +187.5 C238 +1425 C255 +1425 C268 +137.5 C285
 +137.5 C298 +575 C315 +575 C328 +12.5 C345 +12.5 C358 +137.5 C375 +137.5 C388 +87.5 C405 +87.5 C418
 +1162.5 C435 +1162.5 C448 <= 0;
+212.5 C19 +212.5 C24 +212.5 C49 +212.5 C54 +187.5 C79 +187.5 C84 +12.5 C109 +12.5 C114 +162.5 C139 +162.5 C144
 +400 C169 +400 C174 +87.5 C199 +87.5 C204 +187.5 C229 +187.5 C234 +1425 C259 +1425 C264 +137.5 C289
 +137.5 C294 +575 C319 +575 C324 +12.5 C349 +12.5 C354 +137.5 C379 +137.5 C384 +87.5 C409 +87.5 C414
 +1162.5 C439 +1162.5 C444 -100 C463 <= 0;
+212.5 C20 +212.5 C29 +212.5 C50 +212.5 C59 +187.5 C80 +187.5 C89 +12.5 C110 +12.5 C119 +162.5 C140 +162.5 C149
 +400 C170 +400 C179 +87.5 C200 +87.5 C209 +187.5 C230 +187.5 C239 +1425 C260 +1425 C269 +137.5 C290
 +137.5 C299 +575 C320 +575 C329 +12.5 C350 +12.5 C359 +137.5 C380 +137.5 C389 +87.5 C410 +87.5 C419
 +1162.5 C440 +1162.5 C449 -100 C464 <= 0;
+212.5 C25 +212.5 C30 +212.5 C55 +212.5 C60 +187.5 C85 +187.5 C90 +12.5 C115 +12.5 C120 +162.5 C145 +162.5 C150
 +400 C175 +400 C180 +87.5 C205 +87.5 C210 +187.5 C235 +187.5 C240 +1425 C265 +1425 C270 +137.5 C295
 +137.5 C300 +575 C325 +575 C330 +12.5 C355 +12.5 C360 +137.5 C385 +137.5 C390 +87.5 C415 +87.5 C420
 +1162.5 C445 +1162.5 C450 -100 C465 <= 0;
+C451 +C466 <= 100;
+C452 +C467 <= 100;
+C453 +C468 <= 100;
+C454 +C469 <= 100;
+C455 +C470 <= 100;
+C456 +C471 <= 100;
+C457 +C472 <= 100;
+C458 +C473 <= 100;
+C459 +C474 <= 100;
+C460 +C475 <= 100;
+C461 +C476 <= 100;
+C462 +C477 <= 100;
+C463 +C478 <= 100;
+C464 +C479 <= 100;
+C465 +C480 <= 100;

/* Variable bounds */
C1 <= 1;
C2 <= 1;
C3 <= 1;
C4 <= 1;
C5 <= 1;
C6 <= 1;
C7 <= 1;
C8 <= 1;
C9 <= 1;
C10 <= 1;
C11 <= 1;
C12 <= 1;
C13 <= 1;
C14 <= 1;
C15 <= 1;
C16 <= 1;
C17 <= 1;
C18 <= 1;
C19 <= 1;
C20 <= 1;
C21 <= 1;
C22 <= 1;
C23 <= 1;
C24 <= 1;
C25 <= 1;
C26 <= 1;
C27 <= 1;
C28 <= 1;
C29 <= 1;
C30 <= 1;
C31 <= 1;
C32 <= 1;
C33 <= 1;
C34 <= 1;
C35 <= 1;
C36 <= 1;
C37 <= 1;
C38 <= 1;
C39 <= 1;
C40 <= 1;
C41 <= 1;
C42 <= 1;
C43 <= 1;
C44 <= 1;
C45 <= 1;
C46 <= 1;
C47 <= 1;
C48 <= 1;
C49 <= 1;
C50 <= 1;
C51 <= 1;
C52 <= 1;
C53 <= 1;
C54 <= 1;
C55 <= 1;
C56 <= 1;
C57 <= 1;
C58 <= 1;
C59 <= 1;
C60 <= 1;
C61 <= 1;
C62 <= 1;
C63 <= 1;
C64 <= 1;
C65 <= 1;
C66 <= 1;
C67 <= 1;
C68 <= 1;
C69 <= 1;
C70 <= 1;
C71 <= 1;
C72 <= 1;
C73 <= 1;
C74 <= 1;
C75 <= 1;
C76 <= 1;
C77 <= 1;
C78 <= 1;
C79 <= 1;
C80 <= 1;
C81 <= 1;
C82 <= 1;
C83 <= 1;
C84 <= 1;
C85 <= 1;
C86 <= 1;
C87 <= 1;
C88 <= 1;
C89 <= 1;
C90 <= 1;
C91 <= 1;
C92 <= 1;
C93 <= 1;
C94 <= 1;
C95 <= 1;
C96 <= 1;
C97 <= 1;
C98 <= 1;
C99 <= 1;
C100 <= 1;
C101 <= 1;
C102 <= 1;
C103 <= 1;
C104 <= 1;
C105 <= 1;
C106 <= 1;
C107 <= 1;
C108 <= 1;
C109 <= 1;
C110 <= 1;
C111 <= 1;
C112 <= 1;
C113 <= 1;
C114 <= 1;
C115 <= 1;
C116 <= 1;
C117 <= 1;
C118 <= 1;
C119 <= 1;
C120 <= 1;
C121 <= 1;
C122 <= 1;
C123 <= 1;
C124 <= 1;
C125 <= 1;
C126 <= 1;
C127 <= 1;
C128 <= 1;
C129 <= 1;
C130 <= 1;
C131 <= 1;
C132 <= 1;
C133 <= 1;
C134 <= 1;
C135 <= 1;
C136 <= 1;
C137 <= 1;
C138 <= 1;
C139 <= 1;
C140 <= 1;
C141 <= 1;
C142 <= 1;
C143 <= 1;
C144 <= 1;
C145 <= 1;
C146 <= 1;
C147 <= 1;
C148 <= 1;
C149 <= 1;
C150 <= 1;
C151 <= 1;
C152 <= 1;
C153 <= 1;
C154 <= 1;
C155 <= 1;
C156 <= 1;
C157 <= 1;
C158 <= 1;
C159 <= 1;
C160 <= 1;
C161 <= 1;
C162 <= 1;
C163 <= 1;
C164 <= 1;
C165 <= 1;
C166 <= 1;
C167 <= 1;
C168 <= 1;
C169 <= 1;
C170 <= 1;
C171 <= 1;
C172 <= 1;
C173 <= 1;
C174 <= 1;
C175 <= 1;
C176 <= 1;
C177 <= 1;
C178 <= 1;
C179 <= 1;
C180 <= 1;
C181 <= 1;
C182 <= 1;
C183 <= 1;
C184 <= 1;
C185 <= 1;
C186 <= 1;
C187 <= 1;
C188 <= 1;
C189 <= 1;
C190 <= 1;
C191 <= 1;
C192 <= 1;
C193 <= 1;
C194 <= 1;
C195 <= 1;
C196 <= 1;
C197 <= 1;
C198 <= 1;
C199 <= 1;
C200 <= 1;
C201 <= 1;
C202 <= 1;
C203 <= 1;
C204 <= 1;
C205 <= 1;
C206 <= 1;
C207 <= 1;
C208 <= 1;
C209 <= 1;
C210 <= 1;
C211 <= 1;
C212 <= 1;
C213 <= 1;
C214 <= 1;
C215 <= 1;
C216 <= 1;
C217 <= 1;
C218 <= 1;
C219 <= 1;
C220 <= 1;
C221 <= 1;
C222 <= 1;
C223 <= 1;
C224 <= 1;
C225 <= 1;
C226 <= 1;
C227 <= 1;
C228 <= 1;
C229 <= 1;
C230 <= 1;
C231 <= 1;
C232 <= 1;
C233 <= 1;
C234 <= 1;
C235 <= 1;
C236 <= 1;
C237 <= 1;
C238 <= 1;
C239 <= 1;
C240 <= 1;
C241 <= 1;
C242 <= 1;
C243 <= 1;
C244 <= 1;
C245 <= 1;
C246 <= 1;
C247 <= 1;
C248 <= 1;
C249 <= 1;
C250 <= 1;
C251 <= 1;
C252 <= 1;
C253 <= 1;
C254 <= 1;
C255 <= 1;
C256 <= 1;
C257 <= 1;
C258 <= 1;
C259 <= 1;
C260 <= 1;
C261 <= 1;
C262 <= 1;
C263 <= 1;
C264 <= 1;
C265 <= 1;
C266 <= 1;
C267 <= 1;
C268 <= 1;
C269 <= 1;
C270 <= 1;
C271 <= 1;
C272 <= 1;
C273 <= 1;
C274 <= 1;
C275 <= 1;
C276 <= 1;
C277 <= 1;
C278 <= 1;
C279 <= 1;
C280 <= 1;
C281 <= 1;
C282 <= 1;
C283 <= 1;
C284 <= 1;
C285 <= 1;
C286 <= 1;
C287 <= 1;
C288 <= 1;
C289 <= 1;
C290 <= 1;
C291 <= 1;
C292 <= 1;
C293 <= 1;
C294 <= 1;
C295 <= 1;
C296 <= 1;
C297 <= 1;
C298 <= 1;
C299 <= 1;
C300 <= 1;
C301 <= 1;
C302 <= 1;
C303 <= 1;
C304 <= 1;
C305 <= 1;
C306 <= 1;
C307 <= 1;
C308 <= 1;
C309 <= 1;
C310 <= 1;
C311 <= 1;
C312 <= 1;
C313 <= 1;
C314 <= 1;
C315 <= 1;
C316 <= 1;
C317 <= 1;
C318 <= 1;
C319 <= 1;
C320 <= 1;
C321 <= 1;
C322 <= 1;
C323 <= 1;
C324 <= 1;
C325 <= 1;
C326 <= 1;
C327 <= 1;
C328 <= 1;
C329 <= 1;
C330 <= 1;
C331 <= 1;
C332 <= 1;
C333 <= 1;
C334 <= 1;
C335 <= 1;
C336 <= 1;
C337 <= 1;
C338 <= 1;
C339 <= 1;
C340 <= 1;
C341 <= 1;
C342 <= 1;
C343 <= 1;
C344 <= 1;
C345 <= 1;
C346 <= 1;
C347 <= 1;
C348 <= 1;
C349 <= 1;
C350 <= 1;
C351 <= 1;
C352 <= 1;
C353 <= 1;
C354 <= 1;
C355 <= 1;
C356 <= 1;
C357 <= 1;
C358 <= 1;
C359 <= 1;
C360 <= 1;
C361 <= 1;
C362 <= 1;
C363 <= 1;
C364 <= 1;
C365 <= 1;
C366 <= 1;
C367 <= 1;
C368 <= 1;
C369 <= 1;
C370 <= 1;
C371 <= 1;
C372 <= 1;
C373 <= 1;
C374 <= 1;
C375 <= 1;
C376 <= 1;
C377 <= 1;
C378 <= 1;
C379 <= 1;
C380 <= 1;
C381 <= 1;
C382 <= 1;
C383 <= 1;
C384 <= 1;
C385 <= 1;
C386 <= 1;
C387 <= 1;
C388 <= 1;
C389 <= 1;
C390 <= 1;
C391 <= 1;
C392 <= 1;
C393 <= 1;
C394 <= 1;
C395 <= 1;
C396 <= 1;
C397 <= 1;
C398 <= 1;
C399 <= 1;
C400 <= 1;
C401 <= 1;
C402 <= 1;
C403 <= 1;
C404 <= 1;
C405 <= 1;
C406 <= 1;
C407 <= 1;
C408 <= 1;
C409 <= 1;
C410 <= 1;
C411 <= 1;
C412 <= 1;
C413 <= 1;
C414 <= 1;
C415 <= 1;
C416 <= 1;
C417 <= 1;
C418 <= 1;
C419 <= 1;
C420 <= 1;
C421 <= 1;
C422 <= 1;
C423 <= 1;
C424 <= 1;
C425 <= 1;
C426 <= 1;
C427 <= 1;
C428 <= 1;
C429 <= 1;
C430 <= 1;
C431 <= 1;
C432 <= 1;
C433 <= 1;
C434 <= 1;
C435 <= 1;
C436 <= 1;
C437 <= 1;
C438 <= 1;
C439 <= 1;
C440 <= 1;
C441 <= 1;
C442 <= 1;
C443 <= 1;
C444 <= 1;
C445 <= 1;
C446 <= 1;
C447 <= 1;
C448 <= 1;
C449 <= 1;
C450 <= 1;
C466 <= 1;
C467 <= 1;
C468 <= 1;
C469 <= 1;
C470 <= 1;
C471 <= 1;
C472 <= 1;
C473 <= 1;
C474 <= 1;
C475 <= 1;
C476 <= 1;
C477 <= 1;
C478 <= 1;
C479 <= 1;
C480 <= 1;

/* Integer definitions */
int C1,C2,C3,C4,C5,C6,C7,C8,C9,C10,C11,C12,C13,C14,C15,C16,C17,C18,C19,C20,C21,C22,C23,C24,C25,C26,C27,C28,C29,C30,C31,C32,C33,C34,C35,C36,C37,C38,C39,C40,C41,C42,C43,C44,C45,C46,C47,C48,C49,C50,C51,C52,C53,C54,C55,C56,C57,C58,C59,C60,C61,C62,C63,C64,C65,C66,C67,C68,C69,C70,C71,C72,C73,C74,C75,C76,C77,C78,C79,C80,C81,C82,C83,C84,C85,C86,C87,C88,C89,C90,C91,C92,C93,C94,C95,C96,C97,C98,C99,C100,C101,C102,C103,C104,C105,C106,C107,C108,C109,C110,C111,C112,C113,C114,C115,C116,C117,C118,C119,C120,C121,C122,C123,C124,C125,C126,C127,C128,C129,C130,C131,C132,C133,C134,C135,C136,C137,C138,C139,C140,C141,C142,C143,C144,C145,C146,C147,C148,C149,C150,C151,C152,C153,C154,C155,C156,C157,C158,C159,C160,C161,C162,C163,C164,C165,C166,C167,C168,C169,C170,C171,C172,C173,C174,C175,C176,C177,C178,C179,C180,C181,C182,C183,C184,C185,C186,C187,C188,C189,C190,C191,C192,C193,C194,C195,C196,C197,C198,C199,C200,C201,C202,C203,C204,C205,C206,C207,C208,C209,C210,C211,C212,C213,C214,C215,C216,C217,C218,C219,C220,C221,C222,C223,C224,C225,C226,C227,C228,C229,C230,C231,C232,C233,C234,C235,C236,C237,C238,C239,C240,C241,C242,C243,C244,C245,C246,C247,C248,C249,C250,C251,C252,C253,C254,C255,C256,C257,C258,C259,C260,C261,C262,C263,C264,C265,C266,C267,C268,C269,C270,C271,C272,C273,C274,C275,C276,C277,C278,C279,C280,C281,C282,C283,C284,C285,C286,C287,C288,C289,C290,C291,C292,C293,C294,C295,C296,C297,C298,C299,C300,C301,C302,C303,C304,C305,C306,C307,C308,C309,C310,C311,C312,C313,C314,C315,C316,C317,C318,C319,C320,C321,C322,C323,C324,C325,C326,C327,C328,C329,C330,C331,C332,C333,C334,C335,C336,C337,C338,C339,C340,C341,C342,C343,C344,C345,C346,C347,C348,C349,C350,C351,C352,C353,C354,C355,C356,C357,C358,C359,C360,C361,C362,C363,C364,C365,C366,C367,C368,C369,C370,C371,C372,C373,C374,C375,C376,C377,C378,C379,C380,C381,C382,C383,C384,C385,C386,C387,C388,C389,C390,C391,C392,C393,C394,C395,C396,C397,C398,C399,C400,C401,C402,C403,C404,C405,C406,C407,C408,C409,C410,C411,C412,C413,C414,C415,C416,C417,C418,C419,C420,C421,C422,C423,C424,C425,C426,C427,C428,C429,C430,C431,C432,C433,C434,C435,C436,C437,C438,C439,C440,C441,C442,C443,C444,C445,C446,C447,C448,C449,C450,C451,C452,C453,C454,C455,C456,C457,C458,C459,C460,C461,C462,C463,C464,C465,C466,C467,C468,C469,C470,C471,C472,C473,C474,C475,C476,C477,C478,C479,C480;
